c cksystemsgroup.github.io/unicorn
c CNF contains a total of 2081 clauses.
c CNF contains a total of 434 variables.
c CNF clauses cover 1 bad states.
c Variable name mapping (33 names):
c   1: input[bit=0]
c   2: input[bit=0]
c   5: input[bit=1]
c   7: input[bit=1]
c   12: input[bit=2]
c   17: input[bit=2]
c   22: input[bit=3]
c   30: input[bit=3]
c   36: input[bit=4]
c   47: input[bit=4]
c   52: input[bit=5]
c   66: input[bit=5]
c   71: input[bit=6]
c   88: input[bit=6]
c   93: input[bit=7]
c   113: input[bit=7]
c   119: input[bit=8]
c   142: input[bit=8]
c   148: input[bit=9]
c   174: input[bit=9]
c   180: input[bit=10]
c   209: input[bit=10]
c   215: input[bit=11]
c   247: input[bit=11]
c   253: input[bit=12]
c   288: input[bit=12]
c   294: input[bit=13]
c   332: input[bit=13]
c   338: input[bit=14]
c   379: input[bit=14]
c   385: input[bit=15]
c   429: input[bit=15]
c   434: ?
p cnf 434 2081
-1 -2 3 0
1 -3 0
2 -3 0
-3 -4 0
3 4 0
-5 -2 6 0
5 -6 0
2 -6 0
-1 -7 8 0
1 -8 0
7 -8 0
-9 0
6 8 9 -10 0
6 8 -9 10 0
6 -8 9 10 0
6 -8 -9 -10 0
-6 8 9 10 0
-6 8 -9 -10 0
-6 -8 9 -10 0
-6 -8 -9 10 0
-4 -10 11 0
4 -11 0
10 -11 0
-12 -2 13 0
12 -13 0
2 -13 0
-5 -7 14 0
5 -14 0
7 -14 0
6 8 -15 0
6 9 -15 0
-8 -9 15 0
8 9 -15 0
-6 -9 15 0
-6 -8 15 0
13 14 15 -16 0
13 14 -15 16 0
13 -14 15 16 0
13 -14 -15 -16 0
-13 14 15 16 0
-13 14 -15 -16 0
-13 -14 15 -16 0
-13 -14 -15 16 0
-1 -17 18 0
1 -18 0
17 -18 0
-19 0
16 18 19 -20 0
16 18 -19 20 0
16 -18 19 20 0
16 -18 -19 -20 0
-16 18 19 20 0
-16 18 -19 -20 0
-16 -18 19 -20 0
-16 -18 -19 20 0
-11 -20 21 0
11 -21 0
20 -21 0
-22 -2 23 0
22 -23 0
2 -23 0
-12 -7 24 0
12 -24 0
7 -24 0
13 14 -25 0
13 15 -25 0
-14 -15 25 0
14 15 -25 0
-13 -15 25 0
-13 -14 25 0
23 24 25 -26 0
23 24 -25 26 0
23 -24 25 26 0
23 -24 -25 -26 0
-23 24 25 26 0
-23 24 -25 -26 0
-23 -24 25 -26 0
-23 -24 -25 26 0
-5 -17 27 0
5 -27 0
17 -27 0
16 18 -28 0
16 19 -28 0
-18 -19 28 0
18 19 -28 0
-16 -19 28 0
-16 -18 28 0
26 27 28 -29 0
26 27 -28 29 0
26 -27 28 29 0
26 -27 -28 -29 0
-26 27 28 29 0
-26 27 -28 -29 0
-26 -27 28 -29 0
-26 -27 -28 29 0
-1 -30 31 0
1 -31 0
30 -31 0
-32 0
29 31 32 -33 0
29 31 -32 33 0
29 -31 32 33 0
29 -31 -32 -33 0
-29 31 32 33 0
-29 31 -32 -33 0
-29 -31 32 -33 0
-29 -31 -32 33 0
-33 -34 0
33 34 0
-21 -34 35 0
21 -35 0
34 -35 0
-36 -2 37 0
36 -37 0
2 -37 0
-22 -7 38 0
22 -38 0
7 -38 0
23 24 -39 0
23 25 -39 0
-24 -25 39 0
24 25 -39 0
-23 -25 39 0
-23 -24 39 0
37 38 39 -40 0
37 38 -39 40 0
37 -38 39 40 0
37 -38 -39 -40 0
-37 38 39 40 0
-37 38 -39 -40 0
-37 -38 39 -40 0
-37 -38 -39 40 0
-12 -17 41 0
12 -41 0
17 -41 0
26 27 -42 0
26 28 -42 0
-27 -28 42 0
27 28 -42 0
-26 -28 42 0
-26 -27 42 0
40 41 42 -43 0
40 41 -42 43 0
40 -41 42 43 0
40 -41 -42 -43 0
-40 41 42 43 0
-40 41 -42 -43 0
-40 -41 42 -43 0
-40 -41 -42 43 0
-5 -30 44 0
5 -44 0
30 -44 0
29 31 -45 0
29 32 -45 0
-31 -32 45 0
31 32 -45 0
-29 -32 45 0
-29 -31 45 0
43 44 45 -46 0
43 44 -45 46 0
43 -44 45 46 0
43 -44 -45 -46 0
-43 44 45 46 0
-43 44 -45 -46 0
-43 -44 45 -46 0
-43 -44 -45 46 0
-1 -47 48 0
1 -48 0
47 -48 0
-49 0
46 48 49 -50 0
46 48 -49 50 0
46 -48 49 50 0
46 -48 -49 -50 0
-46 48 49 50 0
-46 48 -49 -50 0
-46 -48 49 -50 0
-46 -48 -49 50 0
-35 -50 51 0
35 -51 0
50 -51 0
-52 -2 53 0
52 -53 0
2 -53 0
-36 -7 54 0
36 -54 0
7 -54 0
37 38 -55 0
37 39 -55 0
-38 -39 55 0
38 39 -55 0
-37 -39 55 0
-37 -38 55 0
53 54 55 -56 0
53 54 -55 56 0
53 -54 55 56 0
53 -54 -55 -56 0
-53 54 55 56 0
-53 54 -55 -56 0
-53 -54 55 -56 0
-53 -54 -55 56 0
-22 -17 57 0
22 -57 0
17 -57 0
40 41 -58 0
40 42 -58 0
-41 -42 58 0
41 42 -58 0
-40 -42 58 0
-40 -41 58 0
56 57 58 -59 0
56 57 -58 59 0
56 -57 58 59 0
56 -57 -58 -59 0
-56 57 58 59 0
-56 57 -58 -59 0
-56 -57 58 -59 0
-56 -57 -58 59 0
-12 -30 60 0
12 -60 0
30 -60 0
43 44 -61 0
43 45 -61 0
-44 -45 61 0
44 45 -61 0
-43 -45 61 0
-43 -44 61 0
59 60 61 -62 0
59 60 -61 62 0
59 -60 61 62 0
59 -60 -61 -62 0
-59 60 61 62 0
-59 60 -61 -62 0
-59 -60 61 -62 0
-59 -60 -61 62 0
-5 -47 63 0
5 -63 0
47 -63 0
46 48 -64 0
46 49 -64 0
-48 -49 64 0
48 49 -64 0
-46 -49 64 0
-46 -48 64 0
62 63 64 -65 0
62 63 -64 65 0
62 -63 64 65 0
62 -63 -64 -65 0
-62 63 64 65 0
-62 63 -64 -65 0
-62 -63 64 -65 0
-62 -63 -64 65 0
-1 -66 67 0
1 -67 0
66 -67 0
-68 0
65 67 68 -69 0
65 67 -68 69 0
65 -67 68 69 0
65 -67 -68 -69 0
-65 67 68 69 0
-65 67 -68 -69 0
-65 -67 68 -69 0
-65 -67 -68 69 0
-51 -69 70 0
51 -70 0
69 -70 0
-71 -2 72 0
71 -72 0
2 -72 0
-52 -7 73 0
52 -73 0
7 -73 0
53 54 -74 0
53 55 -74 0
-54 -55 74 0
54 55 -74 0
-53 -55 74 0
-53 -54 74 0
72 73 74 -75 0
72 73 -74 75 0
72 -73 74 75 0
72 -73 -74 -75 0
-72 73 74 75 0
-72 73 -74 -75 0
-72 -73 74 -75 0
-72 -73 -74 75 0
-36 -17 76 0
36 -76 0
17 -76 0
56 57 -77 0
56 58 -77 0
-57 -58 77 0
57 58 -77 0
-56 -58 77 0
-56 -57 77 0
75 76 77 -78 0
75 76 -77 78 0
75 -76 77 78 0
75 -76 -77 -78 0
-75 76 77 78 0
-75 76 -77 -78 0
-75 -76 77 -78 0
-75 -76 -77 78 0
-22 -30 79 0
22 -79 0
30 -79 0
59 60 -80 0
59 61 -80 0
-60 -61 80 0
60 61 -80 0
-59 -61 80 0
-59 -60 80 0
78 79 80 -81 0
78 79 -80 81 0
78 -79 80 81 0
78 -79 -80 -81 0
-78 79 80 81 0
-78 79 -80 -81 0
-78 -79 80 -81 0
-78 -79 -80 81 0
-12 -47 82 0
12 -82 0
47 -82 0
62 63 -83 0
62 64 -83 0
-63 -64 83 0
63 64 -83 0
-62 -64 83 0
-62 -63 83 0
81 82 83 -84 0
81 82 -83 84 0
81 -82 83 84 0
81 -82 -83 -84 0
-81 82 83 84 0
-81 82 -83 -84 0
-81 -82 83 -84 0
-81 -82 -83 84 0
-5 -66 85 0
5 -85 0
66 -85 0
65 67 -86 0
65 68 -86 0
-67 -68 86 0
67 68 -86 0
-65 -68 86 0
-65 -67 86 0
84 85 86 -87 0
84 85 -86 87 0
84 -85 86 87 0
84 -85 -86 -87 0
-84 85 86 87 0
-84 85 -86 -87 0
-84 -85 86 -87 0
-84 -85 -86 87 0
-1 -88 89 0
1 -89 0
88 -89 0
-90 0
87 89 90 -91 0
87 89 -90 91 0
87 -89 90 91 0
87 -89 -90 -91 0
-87 89 90 91 0
-87 89 -90 -91 0
-87 -89 90 -91 0
-87 -89 -90 91 0
-70 -91 92 0
70 -92 0
91 -92 0
-93 -2 94 0
93 -94 0
2 -94 0
-71 -7 95 0
71 -95 0
7 -95 0
72 73 -96 0
72 74 -96 0
-73 -74 96 0
73 74 -96 0
-72 -74 96 0
-72 -73 96 0
94 95 96 -97 0
94 95 -96 97 0
94 -95 96 97 0
94 -95 -96 -97 0
-94 95 96 97 0
-94 95 -96 -97 0
-94 -95 96 -97 0
-94 -95 -96 97 0
-52 -17 98 0
52 -98 0
17 -98 0
75 76 -99 0
75 77 -99 0
-76 -77 99 0
76 77 -99 0
-75 -77 99 0
-75 -76 99 0
97 98 99 -100 0
97 98 -99 100 0
97 -98 99 100 0
97 -98 -99 -100 0
-97 98 99 100 0
-97 98 -99 -100 0
-97 -98 99 -100 0
-97 -98 -99 100 0
-36 -30 101 0
36 -101 0
30 -101 0
78 79 -102 0
78 80 -102 0
-79 -80 102 0
79 80 -102 0
-78 -80 102 0
-78 -79 102 0
100 101 102 -103 0
100 101 -102 103 0
100 -101 102 103 0
100 -101 -102 -103 0
-100 101 102 103 0
-100 101 -102 -103 0
-100 -101 102 -103 0
-100 -101 -102 103 0
-22 -47 104 0
22 -104 0
47 -104 0
81 82 -105 0
81 83 -105 0
-82 -83 105 0
82 83 -105 0
-81 -83 105 0
-81 -82 105 0
103 104 105 -106 0
103 104 -105 106 0
103 -104 105 106 0
103 -104 -105 -106 0
-103 104 105 106 0
-103 104 -105 -106 0
-103 -104 105 -106 0
-103 -104 -105 106 0
-12 -66 107 0
12 -107 0
66 -107 0
84 85 -108 0
84 86 -108 0
-85 -86 108 0
85 86 -108 0
-84 -86 108 0
-84 -85 108 0
106 107 108 -109 0
106 107 -108 109 0
106 -107 108 109 0
106 -107 -108 -109 0
-106 107 108 109 0
-106 107 -108 -109 0
-106 -107 108 -109 0
-106 -107 -108 109 0
-5 -88 110 0
5 -110 0
88 -110 0
87 89 -111 0
87 90 -111 0
-89 -90 111 0
89 90 -111 0
-87 -90 111 0
-87 -89 111 0
109 110 111 -112 0
109 110 -111 112 0
109 -110 111 112 0
109 -110 -111 -112 0
-109 110 111 112 0
-109 110 -111 -112 0
-109 -110 111 -112 0
-109 -110 -111 112 0
-1 -113 114 0
1 -114 0
113 -114 0
-115 0
112 114 115 -116 0
112 114 -115 116 0
112 -114 115 116 0
112 -114 -115 -116 0
-112 114 115 116 0
-112 114 -115 -116 0
-112 -114 115 -116 0
-112 -114 -115 116 0
-116 -117 0
116 117 0
-92 -117 118 0
92 -118 0
117 -118 0
-119 -2 120 0
119 -120 0
2 -120 0
-93 -7 121 0
93 -121 0
7 -121 0
94 95 -122 0
94 96 -122 0
-95 -96 122 0
95 96 -122 0
-94 -96 122 0
-94 -95 122 0
120 121 122 -123 0
120 121 -122 123 0
120 -121 122 123 0
120 -121 -122 -123 0
-120 121 122 123 0
-120 121 -122 -123 0
-120 -121 122 -123 0
-120 -121 -122 123 0
-71 -17 124 0
71 -124 0
17 -124 0
97 98 -125 0
97 99 -125 0
-98 -99 125 0
98 99 -125 0
-97 -99 125 0
-97 -98 125 0
123 124 125 -126 0
123 124 -125 126 0
123 -124 125 126 0
123 -124 -125 -126 0
-123 124 125 126 0
-123 124 -125 -126 0
-123 -124 125 -126 0
-123 -124 -125 126 0
-52 -30 127 0
52 -127 0
30 -127 0
100 101 -128 0
100 102 -128 0
-101 -102 128 0
101 102 -128 0
-100 -102 128 0
-100 -101 128 0
126 127 128 -129 0
126 127 -128 129 0
126 -127 128 129 0
126 -127 -128 -129 0
-126 127 128 129 0
-126 127 -128 -129 0
-126 -127 128 -129 0
-126 -127 -128 129 0
-36 -47 130 0
36 -130 0
47 -130 0
103 104 -131 0
103 105 -131 0
-104 -105 131 0
104 105 -131 0
-103 -105 131 0
-103 -104 131 0
129 130 131 -132 0
129 130 -131 132 0
129 -130 131 132 0
129 -130 -131 -132 0
-129 130 131 132 0
-129 130 -131 -132 0
-129 -130 131 -132 0
-129 -130 -131 132 0
-22 -66 133 0
22 -133 0
66 -133 0
106 107 -134 0
106 108 -134 0
-107 -108 134 0
107 108 -134 0
-106 -108 134 0
-106 -107 134 0
132 133 134 -135 0
132 133 -134 135 0
132 -133 134 135 0
132 -133 -134 -135 0
-132 133 134 135 0
-132 133 -134 -135 0
-132 -133 134 -135 0
-132 -133 -134 135 0
-12 -88 136 0
12 -136 0
88 -136 0
109 110 -137 0
109 111 -137 0
-110 -111 137 0
110 111 -137 0
-109 -111 137 0
-109 -110 137 0
135 136 137 -138 0
135 136 -137 138 0
135 -136 137 138 0
135 -136 -137 -138 0
-135 136 137 138 0
-135 136 -137 -138 0
-135 -136 137 -138 0
-135 -136 -137 138 0
-5 -113 139 0
5 -139 0
113 -139 0
112 114 -140 0
112 115 -140 0
-114 -115 140 0
114 115 -140 0
-112 -115 140 0
-112 -114 140 0
138 139 140 -141 0
138 139 -140 141 0
138 -139 140 141 0
138 -139 -140 -141 0
-138 139 140 141 0
-138 139 -140 -141 0
-138 -139 140 -141 0
-138 -139 -140 141 0
-1 -142 143 0
1 -143 0
142 -143 0
-144 0
141 143 144 -145 0
141 143 -144 145 0
141 -143 144 145 0
141 -143 -144 -145 0
-141 143 144 145 0
-141 143 -144 -145 0
-141 -143 144 -145 0
-141 -143 -144 145 0
-145 -146 0
145 146 0
-118 -146 147 0
118 -147 0
146 -147 0
-148 -2 149 0
148 -149 0
2 -149 0
-119 -7 150 0
119 -150 0
7 -150 0
120 121 -151 0
120 122 -151 0
-121 -122 151 0
121 122 -151 0
-120 -122 151 0
-120 -121 151 0
149 150 151 -152 0
149 150 -151 152 0
149 -150 151 152 0
149 -150 -151 -152 0
-149 150 151 152 0
-149 150 -151 -152 0
-149 -150 151 -152 0
-149 -150 -151 152 0
-93 -17 153 0
93 -153 0
17 -153 0
123 124 -154 0
123 125 -154 0
-124 -125 154 0
124 125 -154 0
-123 -125 154 0
-123 -124 154 0
152 153 154 -155 0
152 153 -154 155 0
152 -153 154 155 0
152 -153 -154 -155 0
-152 153 154 155 0
-152 153 -154 -155 0
-152 -153 154 -155 0
-152 -153 -154 155 0
-71 -30 156 0
71 -156 0
30 -156 0
126 127 -157 0
126 128 -157 0
-127 -128 157 0
127 128 -157 0
-126 -128 157 0
-126 -127 157 0
155 156 157 -158 0
155 156 -157 158 0
155 -156 157 158 0
155 -156 -157 -158 0
-155 156 157 158 0
-155 156 -157 -158 0
-155 -156 157 -158 0
-155 -156 -157 158 0
-52 -47 159 0
52 -159 0
47 -159 0
129 130 -160 0
129 131 -160 0
-130 -131 160 0
130 131 -160 0
-129 -131 160 0
-129 -130 160 0
158 159 160 -161 0
158 159 -160 161 0
158 -159 160 161 0
158 -159 -160 -161 0
-158 159 160 161 0
-158 159 -160 -161 0
-158 -159 160 -161 0
-158 -159 -160 161 0
-36 -66 162 0
36 -162 0
66 -162 0
132 133 -163 0
132 134 -163 0
-133 -134 163 0
133 134 -163 0
-132 -134 163 0
-132 -133 163 0
161 162 163 -164 0
161 162 -163 164 0
161 -162 163 164 0
161 -162 -163 -164 0
-161 162 163 164 0
-161 162 -163 -164 0
-161 -162 163 -164 0
-161 -162 -163 164 0
-22 -88 165 0
22 -165 0
88 -165 0
135 136 -166 0
135 137 -166 0
-136 -137 166 0
136 137 -166 0
-135 -137 166 0
-135 -136 166 0
164 165 166 -167 0
164 165 -166 167 0
164 -165 166 167 0
164 -165 -166 -167 0
-164 165 166 167 0
-164 165 -166 -167 0
-164 -165 166 -167 0
-164 -165 -166 167 0
-12 -113 168 0
12 -168 0
113 -168 0
138 139 -169 0
138 140 -169 0
-139 -140 169 0
139 140 -169 0
-138 -140 169 0
-138 -139 169 0
167 168 169 -170 0
167 168 -169 170 0
167 -168 169 170 0
167 -168 -169 -170 0
-167 168 169 170 0
-167 168 -169 -170 0
-167 -168 169 -170 0
-167 -168 -169 170 0
-5 -142 171 0
5 -171 0
142 -171 0
141 143 -172 0
141 144 -172 0
-143 -144 172 0
143 144 -172 0
-141 -144 172 0
-141 -143 172 0
170 171 172 -173 0
170 171 -172 173 0
170 -171 172 173 0
170 -171 -172 -173 0
-170 171 172 173 0
-170 171 -172 -173 0
-170 -171 172 -173 0
-170 -171 -172 173 0
-1 -174 175 0
1 -175 0
174 -175 0
-176 0
173 175 176 -177 0
173 175 -176 177 0
173 -175 176 177 0
173 -175 -176 -177 0
-173 175 176 177 0
-173 175 -176 -177 0
-173 -175 176 -177 0
-173 -175 -176 177 0
-177 -178 0
177 178 0
-147 -178 179 0
147 -179 0
178 -179 0
-180 -2 181 0
180 -181 0
2 -181 0
-148 -7 182 0
148 -182 0
7 -182 0
149 150 -183 0
149 151 -183 0
-150 -151 183 0
150 151 -183 0
-149 -151 183 0
-149 -150 183 0
181 182 183 -184 0
181 182 -183 184 0
181 -182 183 184 0
181 -182 -183 -184 0
-181 182 183 184 0
-181 182 -183 -184 0
-181 -182 183 -184 0
-181 -182 -183 184 0
-119 -17 185 0
119 -185 0
17 -185 0
152 153 -186 0
152 154 -186 0
-153 -154 186 0
153 154 -186 0
-152 -154 186 0
-152 -153 186 0
184 185 186 -187 0
184 185 -186 187 0
184 -185 186 187 0
184 -185 -186 -187 0
-184 185 186 187 0
-184 185 -186 -187 0
-184 -185 186 -187 0
-184 -185 -186 187 0
-93 -30 188 0
93 -188 0
30 -188 0
155 156 -189 0
155 157 -189 0
-156 -157 189 0
156 157 -189 0
-155 -157 189 0
-155 -156 189 0
187 188 189 -190 0
187 188 -189 190 0
187 -188 189 190 0
187 -188 -189 -190 0
-187 188 189 190 0
-187 188 -189 -190 0
-187 -188 189 -190 0
-187 -188 -189 190 0
-71 -47 191 0
71 -191 0
47 -191 0
158 159 -192 0
158 160 -192 0
-159 -160 192 0
159 160 -192 0
-158 -160 192 0
-158 -159 192 0
190 191 192 -193 0
190 191 -192 193 0
190 -191 192 193 0
190 -191 -192 -193 0
-190 191 192 193 0
-190 191 -192 -193 0
-190 -191 192 -193 0
-190 -191 -192 193 0
-52 -66 194 0
52 -194 0
66 -194 0
161 162 -195 0
161 163 -195 0
-162 -163 195 0
162 163 -195 0
-161 -163 195 0
-161 -162 195 0
193 194 195 -196 0
193 194 -195 196 0
193 -194 195 196 0
193 -194 -195 -196 0
-193 194 195 196 0
-193 194 -195 -196 0
-193 -194 195 -196 0
-193 -194 -195 196 0
-36 -88 197 0
36 -197 0
88 -197 0
164 165 -198 0
164 166 -198 0
-165 -166 198 0
165 166 -198 0
-164 -166 198 0
-164 -165 198 0
196 197 198 -199 0
196 197 -198 199 0
196 -197 198 199 0
196 -197 -198 -199 0
-196 197 198 199 0
-196 197 -198 -199 0
-196 -197 198 -199 0
-196 -197 -198 199 0
-22 -113 200 0
22 -200 0
113 -200 0
167 168 -201 0
167 169 -201 0
-168 -169 201 0
168 169 -201 0
-167 -169 201 0
-167 -168 201 0
199 200 201 -202 0
199 200 -201 202 0
199 -200 201 202 0
199 -200 -201 -202 0
-199 200 201 202 0
-199 200 -201 -202 0
-199 -200 201 -202 0
-199 -200 -201 202 0
-12 -142 203 0
12 -203 0
142 -203 0
170 171 -204 0
170 172 -204 0
-171 -172 204 0
171 172 -204 0
-170 -172 204 0
-170 -171 204 0
202 203 204 -205 0
202 203 -204 205 0
202 -203 204 205 0
202 -203 -204 -205 0
-202 203 204 205 0
-202 203 -204 -205 0
-202 -203 204 -205 0
-202 -203 -204 205 0
-5 -174 206 0
5 -206 0
174 -206 0
173 175 -207 0
173 176 -207 0
-175 -176 207 0
175 176 -207 0
-173 -176 207 0
-173 -175 207 0
205 206 207 -208 0
205 206 -207 208 0
205 -206 207 208 0
205 -206 -207 -208 0
-205 206 207 208 0
-205 206 -207 -208 0
-205 -206 207 -208 0
-205 -206 -207 208 0
-1 -209 210 0
1 -210 0
209 -210 0
-211 0
208 210 211 -212 0
208 210 -211 212 0
208 -210 211 212 0
208 -210 -211 -212 0
-208 210 211 212 0
-208 210 -211 -212 0
-208 -210 211 -212 0
-208 -210 -211 212 0
-212 -213 0
212 213 0
-179 -213 214 0
179 -214 0
213 -214 0
-215 -2 216 0
215 -216 0
2 -216 0
-180 -7 217 0
180 -217 0
7 -217 0
181 182 -218 0
181 183 -218 0
-182 -183 218 0
182 183 -218 0
-181 -183 218 0
-181 -182 218 0
216 217 218 -219 0
216 217 -218 219 0
216 -217 218 219 0
216 -217 -218 -219 0
-216 217 218 219 0
-216 217 -218 -219 0
-216 -217 218 -219 0
-216 -217 -218 219 0
-148 -17 220 0
148 -220 0
17 -220 0
184 185 -221 0
184 186 -221 0
-185 -186 221 0
185 186 -221 0
-184 -186 221 0
-184 -185 221 0
219 220 221 -222 0
219 220 -221 222 0
219 -220 221 222 0
219 -220 -221 -222 0
-219 220 221 222 0
-219 220 -221 -222 0
-219 -220 221 -222 0
-219 -220 -221 222 0
-119 -30 223 0
119 -223 0
30 -223 0
187 188 -224 0
187 189 -224 0
-188 -189 224 0
188 189 -224 0
-187 -189 224 0
-187 -188 224 0
222 223 224 -225 0
222 223 -224 225 0
222 -223 224 225 0
222 -223 -224 -225 0
-222 223 224 225 0
-222 223 -224 -225 0
-222 -223 224 -225 0
-222 -223 -224 225 0
-93 -47 226 0
93 -226 0
47 -226 0
190 191 -227 0
190 192 -227 0
-191 -192 227 0
191 192 -227 0
-190 -192 227 0
-190 -191 227 0
225 226 227 -228 0
225 226 -227 228 0
225 -226 227 228 0
225 -226 -227 -228 0
-225 226 227 228 0
-225 226 -227 -228 0
-225 -226 227 -228 0
-225 -226 -227 228 0
-71 -66 229 0
71 -229 0
66 -229 0
193 194 -230 0
193 195 -230 0
-194 -195 230 0
194 195 -230 0
-193 -195 230 0
-193 -194 230 0
228 229 230 -231 0
228 229 -230 231 0
228 -229 230 231 0
228 -229 -230 -231 0
-228 229 230 231 0
-228 229 -230 -231 0
-228 -229 230 -231 0
-228 -229 -230 231 0
-52 -88 232 0
52 -232 0
88 -232 0
196 197 -233 0
196 198 -233 0
-197 -198 233 0
197 198 -233 0
-196 -198 233 0
-196 -197 233 0
231 232 233 -234 0
231 232 -233 234 0
231 -232 233 234 0
231 -232 -233 -234 0
-231 232 233 234 0
-231 232 -233 -234 0
-231 -232 233 -234 0
-231 -232 -233 234 0
-36 -113 235 0
36 -235 0
113 -235 0
199 200 -236 0
199 201 -236 0
-200 -201 236 0
200 201 -236 0
-199 -201 236 0
-199 -200 236 0
234 235 236 -237 0
234 235 -236 237 0
234 -235 236 237 0
234 -235 -236 -237 0
-234 235 236 237 0
-234 235 -236 -237 0
-234 -235 236 -237 0
-234 -235 -236 237 0
-22 -142 238 0
22 -238 0
142 -238 0
202 203 -239 0
202 204 -239 0
-203 -204 239 0
203 204 -239 0
-202 -204 239 0
-202 -203 239 0
237 238 239 -240 0
237 238 -239 240 0
237 -238 239 240 0
237 -238 -239 -240 0
-237 238 239 240 0
-237 238 -239 -240 0
-237 -238 239 -240 0
-237 -238 -239 240 0
-12 -174 241 0
12 -241 0
174 -241 0
205 206 -242 0
205 207 -242 0
-206 -207 242 0
206 207 -242 0
-205 -207 242 0
-205 -206 242 0
240 241 242 -243 0
240 241 -242 243 0
240 -241 242 243 0
240 -241 -242 -243 0
-240 241 242 243 0
-240 241 -242 -243 0
-240 -241 242 -243 0
-240 -241 -242 243 0
-5 -209 244 0
5 -244 0
209 -244 0
208 210 -245 0
208 211 -245 0
-210 -211 245 0
210 211 -245 0
-208 -211 245 0
-208 -210 245 0
243 244 245 -246 0
243 244 -245 246 0
243 -244 245 246 0
243 -244 -245 -246 0
-243 244 245 246 0
-243 244 -245 -246 0
-243 -244 245 -246 0
-243 -244 -245 246 0
-1 -247 248 0
1 -248 0
247 -248 0
-249 0
246 248 249 -250 0
246 248 -249 250 0
246 -248 249 250 0
246 -248 -249 -250 0
-246 248 249 250 0
-246 248 -249 -250 0
-246 -248 249 -250 0
-246 -248 -249 250 0
-250 -251 0
250 251 0
-214 -251 252 0
214 -252 0
251 -252 0
-253 -2 254 0
253 -254 0
2 -254 0
-215 -7 255 0
215 -255 0
7 -255 0
216 217 -256 0
216 218 -256 0
-217 -218 256 0
217 218 -256 0
-216 -218 256 0
-216 -217 256 0
254 255 256 -257 0
254 255 -256 257 0
254 -255 256 257 0
254 -255 -256 -257 0
-254 255 256 257 0
-254 255 -256 -257 0
-254 -255 256 -257 0
-254 -255 -256 257 0
-180 -17 258 0
180 -258 0
17 -258 0
219 220 -259 0
219 221 -259 0
-220 -221 259 0
220 221 -259 0
-219 -221 259 0
-219 -220 259 0
257 258 259 -260 0
257 258 -259 260 0
257 -258 259 260 0
257 -258 -259 -260 0
-257 258 259 260 0
-257 258 -259 -260 0
-257 -258 259 -260 0
-257 -258 -259 260 0
-148 -30 261 0
148 -261 0
30 -261 0
222 223 -262 0
222 224 -262 0
-223 -224 262 0
223 224 -262 0
-222 -224 262 0
-222 -223 262 0
260 261 262 -263 0
260 261 -262 263 0
260 -261 262 263 0
260 -261 -262 -263 0
-260 261 262 263 0
-260 261 -262 -263 0
-260 -261 262 -263 0
-260 -261 -262 263 0
-119 -47 264 0
119 -264 0
47 -264 0
225 226 -265 0
225 227 -265 0
-226 -227 265 0
226 227 -265 0
-225 -227 265 0
-225 -226 265 0
263 264 265 -266 0
263 264 -265 266 0
263 -264 265 266 0
263 -264 -265 -266 0
-263 264 265 266 0
-263 264 -265 -266 0
-263 -264 265 -266 0
-263 -264 -265 266 0
-93 -66 267 0
93 -267 0
66 -267 0
228 229 -268 0
228 230 -268 0
-229 -230 268 0
229 230 -268 0
-228 -230 268 0
-228 -229 268 0
266 267 268 -269 0
266 267 -268 269 0
266 -267 268 269 0
266 -267 -268 -269 0
-266 267 268 269 0
-266 267 -268 -269 0
-266 -267 268 -269 0
-266 -267 -268 269 0
-71 -88 270 0
71 -270 0
88 -270 0
231 232 -271 0
231 233 -271 0
-232 -233 271 0
232 233 -271 0
-231 -233 271 0
-231 -232 271 0
269 270 271 -272 0
269 270 -271 272 0
269 -270 271 272 0
269 -270 -271 -272 0
-269 270 271 272 0
-269 270 -271 -272 0
-269 -270 271 -272 0
-269 -270 -271 272 0
-52 -113 273 0
52 -273 0
113 -273 0
234 235 -274 0
234 236 -274 0
-235 -236 274 0
235 236 -274 0
-234 -236 274 0
-234 -235 274 0
272 273 274 -275 0
272 273 -274 275 0
272 -273 274 275 0
272 -273 -274 -275 0
-272 273 274 275 0
-272 273 -274 -275 0
-272 -273 274 -275 0
-272 -273 -274 275 0
-36 -142 276 0
36 -276 0
142 -276 0
237 238 -277 0
237 239 -277 0
-238 -239 277 0
238 239 -277 0
-237 -239 277 0
-237 -238 277 0
275 276 277 -278 0
275 276 -277 278 0
275 -276 277 278 0
275 -276 -277 -278 0
-275 276 277 278 0
-275 276 -277 -278 0
-275 -276 277 -278 0
-275 -276 -277 278 0
-22 -174 279 0
22 -279 0
174 -279 0
240 241 -280 0
240 242 -280 0
-241 -242 280 0
241 242 -280 0
-240 -242 280 0
-240 -241 280 0
278 279 280 -281 0
278 279 -280 281 0
278 -279 280 281 0
278 -279 -280 -281 0
-278 279 280 281 0
-278 279 -280 -281 0
-278 -279 280 -281 0
-278 -279 -280 281 0
-12 -209 282 0
12 -282 0
209 -282 0
243 244 -283 0
243 245 -283 0
-244 -245 283 0
244 245 -283 0
-243 -245 283 0
-243 -244 283 0
281 282 283 -284 0
281 282 -283 284 0
281 -282 283 284 0
281 -282 -283 -284 0
-281 282 283 284 0
-281 282 -283 -284 0
-281 -282 283 -284 0
-281 -282 -283 284 0
-5 -247 285 0
5 -285 0
247 -285 0
246 248 -286 0
246 249 -286 0
-248 -249 286 0
248 249 -286 0
-246 -249 286 0
-246 -248 286 0
284 285 286 -287 0
284 285 -286 287 0
284 -285 286 287 0
284 -285 -286 -287 0
-284 285 286 287 0
-284 285 -286 -287 0
-284 -285 286 -287 0
-284 -285 -286 287 0
-1 -288 289 0
1 -289 0
288 -289 0
-290 0
287 289 290 -291 0
287 289 -290 291 0
287 -289 290 291 0
287 -289 -290 -291 0
-287 289 290 291 0
-287 289 -290 -291 0
-287 -289 290 -291 0
-287 -289 -290 291 0
-291 -292 0
291 292 0
-252 -292 293 0
252 -293 0
292 -293 0
-294 -2 295 0
294 -295 0
2 -295 0
-253 -7 296 0
253 -296 0
7 -296 0
254 255 -297 0
254 256 -297 0
-255 -256 297 0
255 256 -297 0
-254 -256 297 0
-254 -255 297 0
295 296 297 -298 0
295 296 -297 298 0
295 -296 297 298 0
295 -296 -297 -298 0
-295 296 297 298 0
-295 296 -297 -298 0
-295 -296 297 -298 0
-295 -296 -297 298 0
-215 -17 299 0
215 -299 0
17 -299 0
257 258 -300 0
257 259 -300 0
-258 -259 300 0
258 259 -300 0
-257 -259 300 0
-257 -258 300 0
298 299 300 -301 0
298 299 -300 301 0
298 -299 300 301 0
298 -299 -300 -301 0
-298 299 300 301 0
-298 299 -300 -301 0
-298 -299 300 -301 0
-298 -299 -300 301 0
-180 -30 302 0
180 -302 0
30 -302 0
260 261 -303 0
260 262 -303 0
-261 -262 303 0
261 262 -303 0
-260 -262 303 0
-260 -261 303 0
301 302 303 -304 0
301 302 -303 304 0
301 -302 303 304 0
301 -302 -303 -304 0
-301 302 303 304 0
-301 302 -303 -304 0
-301 -302 303 -304 0
-301 -302 -303 304 0
-148 -47 305 0
148 -305 0
47 -305 0
263 264 -306 0
263 265 -306 0
-264 -265 306 0
264 265 -306 0
-263 -265 306 0
-263 -264 306 0
304 305 306 -307 0
304 305 -306 307 0
304 -305 306 307 0
304 -305 -306 -307 0
-304 305 306 307 0
-304 305 -306 -307 0
-304 -305 306 -307 0
-304 -305 -306 307 0
-119 -66 308 0
119 -308 0
66 -308 0
266 267 -309 0
266 268 -309 0
-267 -268 309 0
267 268 -309 0
-266 -268 309 0
-266 -267 309 0
307 308 309 -310 0
307 308 -309 310 0
307 -308 309 310 0
307 -308 -309 -310 0
-307 308 309 310 0
-307 308 -309 -310 0
-307 -308 309 -310 0
-307 -308 -309 310 0
-93 -88 311 0
93 -311 0
88 -311 0
269 270 -312 0
269 271 -312 0
-270 -271 312 0
270 271 -312 0
-269 -271 312 0
-269 -270 312 0
310 311 312 -313 0
310 311 -312 313 0
310 -311 312 313 0
310 -311 -312 -313 0
-310 311 312 313 0
-310 311 -312 -313 0
-310 -311 312 -313 0
-310 -311 -312 313 0
-71 -113 314 0
71 -314 0
113 -314 0
272 273 -315 0
272 274 -315 0
-273 -274 315 0
273 274 -315 0
-272 -274 315 0
-272 -273 315 0
313 314 315 -316 0
313 314 -315 316 0
313 -314 315 316 0
313 -314 -315 -316 0
-313 314 315 316 0
-313 314 -315 -316 0
-313 -314 315 -316 0
-313 -314 -315 316 0
-52 -142 317 0
52 -317 0
142 -317 0
275 276 -318 0
275 277 -318 0
-276 -277 318 0
276 277 -318 0
-275 -277 318 0
-275 -276 318 0
316 317 318 -319 0
316 317 -318 319 0
316 -317 318 319 0
316 -317 -318 -319 0
-316 317 318 319 0
-316 317 -318 -319 0
-316 -317 318 -319 0
-316 -317 -318 319 0
-36 -174 320 0
36 -320 0
174 -320 0
278 279 -321 0
278 280 -321 0
-279 -280 321 0
279 280 -321 0
-278 -280 321 0
-278 -279 321 0
319 320 321 -322 0
319 320 -321 322 0
319 -320 321 322 0
319 -320 -321 -322 0
-319 320 321 322 0
-319 320 -321 -322 0
-319 -320 321 -322 0
-319 -320 -321 322 0
-22 -209 323 0
22 -323 0
209 -323 0
281 282 -324 0
281 283 -324 0
-282 -283 324 0
282 283 -324 0
-281 -283 324 0
-281 -282 324 0
322 323 324 -325 0
322 323 -324 325 0
322 -323 324 325 0
322 -323 -324 -325 0
-322 323 324 325 0
-322 323 -324 -325 0
-322 -323 324 -325 0
-322 -323 -324 325 0
-12 -247 326 0
12 -326 0
247 -326 0
284 285 -327 0
284 286 -327 0
-285 -286 327 0
285 286 -327 0
-284 -286 327 0
-284 -285 327 0
325 326 327 -328 0
325 326 -327 328 0
325 -326 327 328 0
325 -326 -327 -328 0
-325 326 327 328 0
-325 326 -327 -328 0
-325 -326 327 -328 0
-325 -326 -327 328 0
-5 -288 329 0
5 -329 0
288 -329 0
287 289 -330 0
287 290 -330 0
-289 -290 330 0
289 290 -330 0
-287 -290 330 0
-287 -289 330 0
328 329 330 -331 0
328 329 -330 331 0
328 -329 330 331 0
328 -329 -330 -331 0
-328 329 330 331 0
-328 329 -330 -331 0
-328 -329 330 -331 0
-328 -329 -330 331 0
-1 -332 333 0
1 -333 0
332 -333 0
-334 0
331 333 334 -335 0
331 333 -334 335 0
331 -333 334 335 0
331 -333 -334 -335 0
-331 333 334 335 0
-331 333 -334 -335 0
-331 -333 334 -335 0
-331 -333 -334 335 0
-335 -336 0
335 336 0
-293 -336 337 0
293 -337 0
336 -337 0
-338 -2 339 0
338 -339 0
2 -339 0
-294 -7 340 0
294 -340 0
7 -340 0
295 296 -341 0
295 297 -341 0
-296 -297 341 0
296 297 -341 0
-295 -297 341 0
-295 -296 341 0
339 340 341 -342 0
339 340 -341 342 0
339 -340 341 342 0
339 -340 -341 -342 0
-339 340 341 342 0
-339 340 -341 -342 0
-339 -340 341 -342 0
-339 -340 -341 342 0
-253 -17 343 0
253 -343 0
17 -343 0
298 299 -344 0
298 300 -344 0
-299 -300 344 0
299 300 -344 0
-298 -300 344 0
-298 -299 344 0
342 343 344 -345 0
342 343 -344 345 0
342 -343 344 345 0
342 -343 -344 -345 0
-342 343 344 345 0
-342 343 -344 -345 0
-342 -343 344 -345 0
-342 -343 -344 345 0
-215 -30 346 0
215 -346 0
30 -346 0
301 302 -347 0
301 303 -347 0
-302 -303 347 0
302 303 -347 0
-301 -303 347 0
-301 -302 347 0
345 346 347 -348 0
345 346 -347 348 0
345 -346 347 348 0
345 -346 -347 -348 0
-345 346 347 348 0
-345 346 -347 -348 0
-345 -346 347 -348 0
-345 -346 -347 348 0
-180 -47 349 0
180 -349 0
47 -349 0
304 305 -350 0
304 306 -350 0
-305 -306 350 0
305 306 -350 0
-304 -306 350 0
-304 -305 350 0
348 349 350 -351 0
348 349 -350 351 0
348 -349 350 351 0
348 -349 -350 -351 0
-348 349 350 351 0
-348 349 -350 -351 0
-348 -349 350 -351 0
-348 -349 -350 351 0
-148 -66 352 0
148 -352 0
66 -352 0
307 308 -353 0
307 309 -353 0
-308 -309 353 0
308 309 -353 0
-307 -309 353 0
-307 -308 353 0
351 352 353 -354 0
351 352 -353 354 0
351 -352 353 354 0
351 -352 -353 -354 0
-351 352 353 354 0
-351 352 -353 -354 0
-351 -352 353 -354 0
-351 -352 -353 354 0
-119 -88 355 0
119 -355 0
88 -355 0
310 311 -356 0
310 312 -356 0
-311 -312 356 0
311 312 -356 0
-310 -312 356 0
-310 -311 356 0
354 355 356 -357 0
354 355 -356 357 0
354 -355 356 357 0
354 -355 -356 -357 0
-354 355 356 357 0
-354 355 -356 -357 0
-354 -355 356 -357 0
-354 -355 -356 357 0
-93 -113 358 0
93 -358 0
113 -358 0
313 314 -359 0
313 315 -359 0
-314 -315 359 0
314 315 -359 0
-313 -315 359 0
-313 -314 359 0
357 358 359 -360 0
357 358 -359 360 0
357 -358 359 360 0
357 -358 -359 -360 0
-357 358 359 360 0
-357 358 -359 -360 0
-357 -358 359 -360 0
-357 -358 -359 360 0
-71 -142 361 0
71 -361 0
142 -361 0
316 317 -362 0
316 318 -362 0
-317 -318 362 0
317 318 -362 0
-316 -318 362 0
-316 -317 362 0
360 361 362 -363 0
360 361 -362 363 0
360 -361 362 363 0
360 -361 -362 -363 0
-360 361 362 363 0
-360 361 -362 -363 0
-360 -361 362 -363 0
-360 -361 -362 363 0
-52 -174 364 0
52 -364 0
174 -364 0
319 320 -365 0
319 321 -365 0
-320 -321 365 0
320 321 -365 0
-319 -321 365 0
-319 -320 365 0
363 364 365 -366 0
363 364 -365 366 0
363 -364 365 366 0
363 -364 -365 -366 0
-363 364 365 366 0
-363 364 -365 -366 0
-363 -364 365 -366 0
-363 -364 -365 366 0
-36 -209 367 0
36 -367 0
209 -367 0
322 323 -368 0
322 324 -368 0
-323 -324 368 0
323 324 -368 0
-322 -324 368 0
-322 -323 368 0
366 367 368 -369 0
366 367 -368 369 0
366 -367 368 369 0
366 -367 -368 -369 0
-366 367 368 369 0
-366 367 -368 -369 0
-366 -367 368 -369 0
-366 -367 -368 369 0
-22 -247 370 0
22 -370 0
247 -370 0
325 326 -371 0
325 327 -371 0
-326 -327 371 0
326 327 -371 0
-325 -327 371 0
-325 -326 371 0
369 370 371 -372 0
369 370 -371 372 0
369 -370 371 372 0
369 -370 -371 -372 0
-369 370 371 372 0
-369 370 -371 -372 0
-369 -370 371 -372 0
-369 -370 -371 372 0
-12 -288 373 0
12 -373 0
288 -373 0
328 329 -374 0
328 330 -374 0
-329 -330 374 0
329 330 -374 0
-328 -330 374 0
-328 -329 374 0
372 373 374 -375 0
372 373 -374 375 0
372 -373 374 375 0
372 -373 -374 -375 0
-372 373 374 375 0
-372 373 -374 -375 0
-372 -373 374 -375 0
-372 -373 -374 375 0
-5 -332 376 0
5 -376 0
332 -376 0
331 333 -377 0
331 334 -377 0
-333 -334 377 0
333 334 -377 0
-331 -334 377 0
-331 -333 377 0
375 376 377 -378 0
375 376 -377 378 0
375 -376 377 378 0
375 -376 -377 -378 0
-375 376 377 378 0
-375 376 -377 -378 0
-375 -376 377 -378 0
-375 -376 -377 378 0
-1 -379 380 0
1 -380 0
379 -380 0
-381 0
378 380 381 -382 0
378 380 -381 382 0
378 -380 381 382 0
378 -380 -381 -382 0
-378 380 381 382 0
-378 380 -381 -382 0
-378 -380 381 -382 0
-378 -380 -381 382 0
-382 -383 0
382 383 0
-337 -383 384 0
337 -384 0
383 -384 0
-385 -2 386 0
385 -386 0
2 -386 0
-338 -7 387 0
338 -387 0
7 -387 0
339 340 -388 0
339 341 -388 0
-340 -341 388 0
340 341 -388 0
-339 -341 388 0
-339 -340 388 0
386 387 388 -389 0
386 387 -388 389 0
386 -387 388 389 0
386 -387 -388 -389 0
-386 387 388 389 0
-386 387 -388 -389 0
-386 -387 388 -389 0
-386 -387 -388 389 0
-294 -17 390 0
294 -390 0
17 -390 0
342 343 -391 0
342 344 -391 0
-343 -344 391 0
343 344 -391 0
-342 -344 391 0
-342 -343 391 0
389 390 391 -392 0
389 390 -391 392 0
389 -390 391 392 0
389 -390 -391 -392 0
-389 390 391 392 0
-389 390 -391 -392 0
-389 -390 391 -392 0
-389 -390 -391 392 0
-253 -30 393 0
253 -393 0
30 -393 0
345 346 -394 0
345 347 -394 0
-346 -347 394 0
346 347 -394 0
-345 -347 394 0
-345 -346 394 0
392 393 394 -395 0
392 393 -394 395 0
392 -393 394 395 0
392 -393 -394 -395 0
-392 393 394 395 0
-392 393 -394 -395 0
-392 -393 394 -395 0
-392 -393 -394 395 0
-215 -47 396 0
215 -396 0
47 -396 0
348 349 -397 0
348 350 -397 0
-349 -350 397 0
349 350 -397 0
-348 -350 397 0
-348 -349 397 0
395 396 397 -398 0
395 396 -397 398 0
395 -396 397 398 0
395 -396 -397 -398 0
-395 396 397 398 0
-395 396 -397 -398 0
-395 -396 397 -398 0
-395 -396 -397 398 0
-180 -66 399 0
180 -399 0
66 -399 0
351 352 -400 0
351 353 -400 0
-352 -353 400 0
352 353 -400 0
-351 -353 400 0
-351 -352 400 0
398 399 400 -401 0
398 399 -400 401 0
398 -399 400 401 0
398 -399 -400 -401 0
-398 399 400 401 0
-398 399 -400 -401 0
-398 -399 400 -401 0
-398 -399 -400 401 0
-148 -88 402 0
148 -402 0
88 -402 0
354 355 -403 0
354 356 -403 0
-355 -356 403 0
355 356 -403 0
-354 -356 403 0
-354 -355 403 0
401 402 403 -404 0
401 402 -403 404 0
401 -402 403 404 0
401 -402 -403 -404 0
-401 402 403 404 0
-401 402 -403 -404 0
-401 -402 403 -404 0
-401 -402 -403 404 0
-119 -113 405 0
119 -405 0
113 -405 0
357 358 -406 0
357 359 -406 0
-358 -359 406 0
358 359 -406 0
-357 -359 406 0
-357 -358 406 0
404 405 406 -407 0
404 405 -406 407 0
404 -405 406 407 0
404 -405 -406 -407 0
-404 405 406 407 0
-404 405 -406 -407 0
-404 -405 406 -407 0
-404 -405 -406 407 0
-93 -142 408 0
93 -408 0
142 -408 0
360 361 -409 0
360 362 -409 0
-361 -362 409 0
361 362 -409 0
-360 -362 409 0
-360 -361 409 0
407 408 409 -410 0
407 408 -409 410 0
407 -408 409 410 0
407 -408 -409 -410 0
-407 408 409 410 0
-407 408 -409 -410 0
-407 -408 409 -410 0
-407 -408 -409 410 0
-71 -174 411 0
71 -411 0
174 -411 0
363 364 -412 0
363 365 -412 0
-364 -365 412 0
364 365 -412 0
-363 -365 412 0
-363 -364 412 0
410 411 412 -413 0
410 411 -412 413 0
410 -411 412 413 0
410 -411 -412 -413 0
-410 411 412 413 0
-410 411 -412 -413 0
-410 -411 412 -413 0
-410 -411 -412 413 0
-52 -209 414 0
52 -414 0
209 -414 0
366 367 -415 0
366 368 -415 0
-367 -368 415 0
367 368 -415 0
-366 -368 415 0
-366 -367 415 0
413 414 415 -416 0
413 414 -415 416 0
413 -414 415 416 0
413 -414 -415 -416 0
-413 414 415 416 0
-413 414 -415 -416 0
-413 -414 415 -416 0
-413 -414 -415 416 0
-36 -247 417 0
36 -417 0
247 -417 0
369 370 -418 0
369 371 -418 0
-370 -371 418 0
370 371 -418 0
-369 -371 418 0
-369 -370 418 0
416 417 418 -419 0
416 417 -418 419 0
416 -417 418 419 0
416 -417 -418 -419 0
-416 417 418 419 0
-416 417 -418 -419 0
-416 -417 418 -419 0
-416 -417 -418 419 0
-22 -288 420 0
22 -420 0
288 -420 0
372 373 -421 0
372 374 -421 0
-373 -374 421 0
373 374 -421 0
-372 -374 421 0
-372 -373 421 0
419 420 421 -422 0
419 420 -421 422 0
419 -420 421 422 0
419 -420 -421 -422 0
-419 420 421 422 0
-419 420 -421 -422 0
-419 -420 421 -422 0
-419 -420 -421 422 0
-12 -332 423 0
12 -423 0
332 -423 0
375 376 -424 0
375 377 -424 0
-376 -377 424 0
376 377 -424 0
-375 -377 424 0
-375 -376 424 0
422 423 424 -425 0
422 423 -424 425 0
422 -423 424 425 0
422 -423 -424 -425 0
-422 423 424 425 0
-422 423 -424 -425 0
-422 -423 424 -425 0
-422 -423 -424 425 0
-5 -379 426 0
5 -426 0
379 -426 0
378 380 -427 0
378 381 -427 0
-380 -381 427 0
380 381 -427 0
-378 -381 427 0
-378 -380 427 0
425 426 427 -428 0
425 426 -427 428 0
425 -426 427 428 0
425 -426 -427 -428 0
-425 426 427 428 0
-425 426 -427 -428 0
-425 -426 427 -428 0
-425 -426 -427 428 0
-1 -429 430 0
1 -430 0
429 -430 0
-431 0
428 430 431 -432 0
428 430 -431 432 0
428 -430 431 432 0
428 -430 -431 -432 0
-428 430 431 432 0
-428 430 -431 -432 0
-428 -430 431 -432 0
-428 -430 -431 432 0
-432 -433 0
432 433 0
-384 -433 434 0
384 -434 0
433 -434 0
434 0
